(set-logic QF_NRA)
(set-info :source |Benchmarks generated from hycomp (https://es-static.fbk.eu/tools/hycomp/). BMC instances of non-linear hybrid automata taken from: Alessandro Cimatti, Sergio Mover, Stefano Tonetta, A quantifier-free SMT encoding of non-linear hybrid automata, FMCAD 2012 and Alessandro Cimatti, Sergio Mover, Stefano Tonetta, Quantier-free encoding of invariants for Hybrid Systems, Formal Methods in System Design. This instance solves a BMC problem of depth 1 and uses the quantifier free encoding with equivalences encoding. Contacts: Sergio Mover (mover@fbk.eu), Stefano Tonetta (tonettas@fbk.eu), Alessandro Cimatti (cimatti@fbk.eu).|)
(set-info :smt-lib-version 2.0)
(set-info :category "industrial")
(set-info :status unsat)
;; MathSAT API call trace
;; generated on Mon Mar 19 10:47:44 2012
(declare-fun b.event_is_timed__AT1 () Bool)
(declare-fun speed_loss__AT0 () Real)
(declare-fun b.counter.1__AT1 () Bool)
(declare-fun b.counter.2__AT1 () Bool)
(declare-fun b.counter.2__AT0 () Bool)
(declare-fun b.time__AT0 () Real)
(declare-fun b.speed_y__AT0 () Real)
(declare-fun b.EVENT.1__AT0 () Bool)
(declare-fun b.time__AT1 () Real)
(declare-fun b.y__AT1 () Real)
(declare-fun b.counter.0__AT1 () Bool)
(declare-fun b.delta__AT0 () Real)
(declare-fun b.counter.3__AT1 () Bool)
(declare-fun b.y__AT0 () Real)
(declare-fun b.event_is_timed__AT0 () Bool)
(declare-fun b.counter.0__AT0 () Bool)
(declare-fun b.counter.1__AT0 () Bool)
(declare-fun b.counter.3__AT0 () Bool)
(declare-fun b.delta__AT1 () Real)
(declare-fun b.EVENT.0__AT1 () Bool)
(declare-fun b.EVENT.1__AT1 () Bool)
(declare-fun b.EVENT.0__AT0 () Bool)
(declare-fun b.speed_y__AT1 () Real)
(assert (let ((.def_242 (* (- 49.0) b.delta__AT1)))
(let ((.def_243 (* 5.0 b.speed_y__AT1)))
(let ((.def_245 (+ .def_243 .def_242)))
(let ((.def_249 (<= .def_245 0.0 )))
(let ((.def_248 (<= b.speed_y__AT1 0.0 )))
(let ((.def_250 (and .def_248 .def_249)))
(let ((.def_246 (<= 0.0 .def_245)))
(let ((.def_241 (<= 0.0 b.speed_y__AT1)))
(let ((.def_247 (and .def_241 .def_246)))
(let ((.def_251 (or .def_247 .def_250)))
(let ((.def_233 (* b.speed_y__AT1 b.delta__AT1)))
(let ((.def_234 (* 10.0 .def_233)))
(let ((.def_231 (* b.delta__AT1 b.delta__AT1)))
(let ((.def_232 (* (- 49.0) .def_231)))
(let ((.def_235 (+ .def_232 .def_234)))
(let ((.def_236 (* 10.0 b.y__AT1)))
(let ((.def_238 (+ .def_236 .def_235)))
(let ((.def_239 (<= 0.0 .def_238)))
(let ((.def_221 (<= 0.0 b.y__AT1)))
(let ((.def_240 (and .def_221 .def_239)))
(let ((.def_252 (and .def_240 .def_251)))
(let ((.def_57 (<= speed_loss__AT0 (/ 1 2))))
(let ((.def_54 (<= (/ 1 10) speed_loss__AT0)))
(let ((.def_58 (and .def_54 .def_57)))
(let ((.def_253 (and .def_58 .def_252)))
(let ((.def_28 (not b.counter.0__AT0)))
(let ((.def_225 (or b.counter.1__AT0 .def_28)))
(let ((.def_31 (not b.counter.2__AT0)))
(let ((.def_226 (or .def_31 .def_225)))
(let ((.def_227 (or b.counter.3__AT0 .def_226)))
(let ((.def_222 (and .def_58 .def_221)))
(let ((.def_218 (not b.EVENT.0__AT1)))
(let ((.def_216 (not b.EVENT.1__AT1)))
(let ((.def_219 (or .def_216 .def_218)))
(let ((.def_102 (not b.counter.1__AT1)))
(let ((.def_4 (not b.counter.0__AT1)))
(let ((.def_209 (or .def_4 .def_102)))
(let ((.def_213 (or b.counter.3__AT1 .def_209)))
(let ((.def_210 (or b.counter.2__AT1 .def_209)))
(let ((.def_8 (not b.counter.2__AT1)))
(let ((.def_208 (or .def_4 .def_8)))
(let ((.def_211 (and .def_208 .def_210)))
(let ((.def_119 (not b.counter.3__AT1)))
(let ((.def_212 (or .def_119 .def_211)))
(let ((.def_214 (and .def_212 .def_213)))
(let ((.def_220 (and .def_214 .def_219)))
(let ((.def_223 (and .def_220 .def_222)))
(let ((.def_203 (<= 0.0 b.delta__AT0)))
(let ((.def_47 (not b.EVENT.0__AT0)))
(let ((.def_45 (not b.EVENT.1__AT0)))
(let ((.def_149 (and .def_45 .def_47)))
(let ((.def_153 (not .def_149)))
(let ((.def_204 (or .def_153 .def_203)))
(let ((.def_205 (or b.EVENT.1__AT0 .def_204)))
(let ((.def_141 (= b.counter.0__AT1 b.counter.0__AT0)))
(let ((.def_139 (= b.counter.1__AT1 b.counter.1__AT0)))
(let ((.def_137 (= b.counter.2__AT1 b.counter.2__AT0)))
(let ((.def_136 (= b.counter.3__AT1 b.counter.3__AT0)))
(let ((.def_138 (and .def_136 .def_137)))
(let ((.def_140 (and .def_138 .def_139)))
(let ((.def_142 (and .def_140 .def_141)))
(let ((.def_200 (or .def_142 .def_153)))
(let ((.def_201 (or b.EVENT.1__AT0 .def_200)))
(let ((.def_189 (* (- 10.0) b.y__AT1)))
(let ((.def_68 (* b.speed_y__AT0 b.delta__AT0)))
(let ((.def_69 (* 10.0 .def_68)))
(let ((.def_192 (+ .def_69 .def_189)))
(let ((.def_64 (* b.delta__AT0 b.delta__AT0)))
(let ((.def_67 (* (- 49.0) .def_64)))
(let ((.def_193 (+ .def_67 .def_192)))
(let ((.def_71 (* 10.0 b.y__AT0)))
(let ((.def_194 (+ .def_71 .def_193)))
(let ((.def_195 (= .def_194 0.0 )))
(let ((.def_184 (* (- 5.0) b.speed_y__AT1)))
(let ((.def_77 (* (- 49.0) b.delta__AT0)))
(let ((.def_185 (+ .def_77 .def_184)))
(let ((.def_79 (* 5.0 b.speed_y__AT0)))
(let ((.def_186 (+ .def_79 .def_185)))
(let ((.def_187 (= .def_186 0.0 )))
(let ((.def_196 (and .def_187 .def_195)))
(let ((.def_197 (or .def_153 .def_196)))
(let ((.def_147 (= b.y__AT0 b.y__AT1)))
(let ((.def_135 (= b.speed_y__AT0 b.speed_y__AT1)))
(let ((.def_180 (and .def_135 .def_147)))
(let ((.def_177 (= b.delta__AT0 0.0 )))
(let ((.def_178 (and .def_149 .def_177)))
(let ((.def_179 (not .def_178)))
(let ((.def_181 (or .def_179 .def_180)))
(let ((.def_182 (or b.EVENT.1__AT0 .def_181)))
(let ((.def_198 (and .def_182 .def_197)))
(let ((.def_159 (= b.time__AT0 b.time__AT1)))
(let ((.def_171 (and .def_147 .def_159)))
(let ((.def_172 (and .def_135 .def_171)))
(let ((.def_173 (and .def_142 .def_172)))
(let ((.def_174 (or .def_45 .def_173)))
(let ((.def_162 (* (- 1.0) b.time__AT1)))
(let ((.def_165 (+ b.delta__AT0 .def_162)))
(let ((.def_166 (+ b.time__AT0 .def_165)))
(let ((.def_167 (= .def_166 0.0 )))
(let ((.def_168 (or .def_153 .def_167)))
(let ((.def_169 (or b.EVENT.1__AT0 .def_168)))
(let ((.def_160 (or .def_149 .def_159)))
(let ((.def_161 (or b.EVENT.1__AT0 .def_160)))
(let ((.def_170 (and .def_161 .def_169)))
(let ((.def_175 (and .def_170 .def_174)))
(let ((.def_155 (= .def_153 b.event_is_timed__AT1)))
(let ((.def_152 (= b.event_is_timed__AT0 .def_149)))
(let ((.def_156 (and .def_152 .def_155)))
(let ((.def_143 (and .def_135 .def_142)))
(let ((.def_76 (<= 0.0 b.speed_y__AT0)))
(let ((.def_92 (not .def_76)))
(let ((.def_91 (= b.y__AT0 0.0 )))
(let ((.def_93 (and .def_91 .def_92)))
(let ((.def_144 (or .def_93 .def_143)))
(let ((.def_111 (or .def_4 b.counter.0__AT0)))
(let ((.def_110 (or b.counter.0__AT1 .def_28)))
(let ((.def_112 (and .def_110 .def_111)))
(let ((.def_113 (and .def_102 .def_112)))
(let ((.def_114 (or b.counter.1__AT0 .def_113)))
(let ((.def_26 (not b.counter.1__AT0)))
(let ((.def_109 (or b.counter.1__AT1 .def_26)))
(let ((.def_115 (and .def_109 .def_114)))
(let ((.def_127 (and .def_8 .def_115)))
(let ((.def_128 (or b.counter.2__AT0 .def_127)))
(let ((.def_122 (and .def_28 .def_102)))
(let ((.def_123 (or b.counter.1__AT0 .def_122)))
(let ((.def_124 (and .def_109 .def_123)))
(let ((.def_125 (and b.counter.2__AT1 .def_124)))
(let ((.def_126 (or .def_31 .def_125)))
(let ((.def_129 (and .def_126 .def_128)))
(let ((.def_130 (and b.counter.3__AT1 .def_129)))
(let ((.def_131 (or b.counter.3__AT0 .def_130)))
(let ((.def_116 (and b.counter.2__AT1 .def_115)))
(let ((.def_117 (or b.counter.2__AT0 .def_116)))
(let ((.def_105 (or b.counter.1__AT1 b.counter.1__AT0)))
(let ((.def_103 (and b.counter.0__AT1 .def_102)))
(let ((.def_104 (or .def_26 .def_103)))
(let ((.def_106 (and .def_104 .def_105)))
(let ((.def_107 (and .def_8 .def_106)))
(let ((.def_108 (or .def_31 .def_107)))
(let ((.def_118 (and .def_108 .def_117)))
(let ((.def_120 (and .def_118 .def_119)))
(let ((.def_34 (not b.counter.3__AT0)))
(let ((.def_121 (or .def_34 .def_120)))
(let ((.def_132 (and .def_121 .def_131)))
(let ((.def_97 (* (- 1.0) speed_loss__AT0)))
(let ((.def_98 (+ 1.0 .def_97)))
(let ((.def_96 (* (- 1.0) b.speed_y__AT0)))
(let ((.def_99 (* .def_96 .def_98)))
(let ((.def_101 (= .def_99 b.speed_y__AT1)))
(let ((.def_133 (and .def_101 .def_132)))
(let ((.def_94 (not .def_93)))
(let ((.def_134 (or .def_94 .def_133)))
(let ((.def_145 (and .def_134 .def_144)))
(let ((.def_148 (and .def_145 .def_147)))
(let ((.def_150 (or .def_148 .def_149)))
(let ((.def_151 (or b.EVENT.1__AT0 .def_150)))
(let ((.def_157 (and .def_151 .def_156)))
(let ((.def_176 (and .def_157 .def_175)))
(let ((.def_199 (and .def_176 .def_198)))
(let ((.def_202 (and .def_199 .def_201)))
(let ((.def_206 (and .def_202 .def_205)))
(let ((.def_207 (and .def_45 .def_206)))
(let ((.def_224 (and .def_207 .def_223)))
(let ((.def_228 (and .def_224 .def_227)))
(let ((.def_81 (+ .def_79 .def_77)))
(let ((.def_85 (<= .def_81 0.0 )))
(let ((.def_84 (<= b.speed_y__AT0 0.0 )))
(let ((.def_86 (and .def_84 .def_85)))
(let ((.def_82 (<= 0.0 .def_81)))
(let ((.def_83 (and .def_76 .def_82)))
(let ((.def_87 (or .def_83 .def_86)))
(let ((.def_70 (+ .def_67 .def_69)))
(let ((.def_73 (+ .def_71 .def_70)))
(let ((.def_74 (<= 0.0 .def_73)))
(let ((.def_50 (<= 0.0 b.y__AT0)))
(let ((.def_75 (and .def_50 .def_74)))
(let ((.def_88 (and .def_75 .def_87)))
(let ((.def_89 (and .def_58 .def_88)))
(let ((.def_59 (and .def_50 .def_58)))
(let ((.def_48 (or .def_45 .def_47)))
(let ((.def_38 (or .def_26 .def_28)))
(let ((.def_42 (or b.counter.3__AT0 .def_38)))
(let ((.def_39 (or b.counter.2__AT0 .def_38)))
(let ((.def_37 (or .def_28 .def_31)))
(let ((.def_40 (and .def_37 .def_39)))
(let ((.def_41 (or .def_34 .def_40)))
(let ((.def_43 (and .def_41 .def_42)))
(let ((.def_49 (and .def_43 .def_48)))
(let ((.def_60 (and .def_49 .def_59)))
(let ((.def_29 (and .def_26 .def_28)))
(let ((.def_32 (and .def_29 .def_31)))
(let ((.def_35 (and .def_32 .def_34)))
(let ((.def_23 (= b.speed_y__AT0 0.0 )))
(let ((.def_20 (= b.y__AT0 10.0 )))
(let ((.def_15 (= b.time__AT0 0.0 )))
(let ((.def_17 (and .def_15 b.event_is_timed__AT0)))
(let ((.def_21 (and .def_17 .def_20)))
(let ((.def_24 (and .def_21 .def_23)))
(let ((.def_36 (and .def_24 .def_35)))
(let ((.def_61 (and .def_36 .def_60)))
(let ((.def_6 (or .def_4 b.counter.1__AT1)))
(let ((.def_9 (or .def_6 .def_8)))
(let ((.def_11 (or .def_9 b.counter.3__AT1)))
(let ((.def_12 (not .def_11)))
(let ((.def_62 (and .def_12 .def_61)))
(let ((.def_90 (and .def_62 .def_89)))
(let ((.def_229 (and .def_90 .def_228)))
(let ((.def_254 (and .def_229 .def_253)))
.def_254))))))))))))))))))))))))))))))))))))))))))))))))))))))))))))))))))))))))))))))))))))))))))))))))))))))))))))))))))))))))))))))))))))))))))))))))))))))))))))))))))))))))))))))))))))))))))))))))))))))))))))))))))
(check-sat)
(exit)
